\ENCODING=ISO-8859-1
\Problem name: instances

Maximize
 obj:
Subject To
 c1: 889 x1 + 179 x2 + 505 x3 + 721 x4 + 701 x5 + 576 x6 + 443 x7 + 973 x8
     + 453 x9 + 879 x10 + 734 x11 + 695 x12 + 998 x13 + 469 x14 + 111 x15
     + 15 x16 + 396 x17 + 175 x18 + 18 x19 + 363 x20 + 501 x21 + 522 x22
     + 689 x23 + 798 x24 + 373 x25 + 534 x26 + 542 x27 + 421 x28 + 855 x29
     + 23 x30 + 836 x31 + 744 x32 + 201 x33 + 341 x34 + 464 x35 + 901 x36
     + 916 x37 + 907 x38 + 874 x39 + 369 x40 + 786 x41 + 608 x42 + 63 x43
     + 783 x44 + 77 x45 + 173 x46 + 797 x47 + 472 x48 + 348 x49 + 814 x50
     + 835 x51 + 848 x52 + 336 x53 + 523 x54 + 645 x55 + 708 x56 + 57 x57
     + 186 x58 + 128 x59 + 911 x60 + 208 x61 + 964 x62 + 654 x63 + 409 x64
     + 304 x65 + 117 x66 + 310 x67 + 220 x68 + 24 x69 + 183 x70 + 588 x71
     + 809 x72 + 791 x73 + 650 x74 + 591 x75 + 867 x76 + 823 x77 + 388 x78
     + 338 x79 + 170 x80 + 201 x81 + 172 x82 + 18 x83 + 536 x84 + 694 x85
     + 662 x86 + 244 x87 + 751 x88 + 848 x89 + 372 x90 + 661 x91 + 55 x92
     + 335 x93 + 314 x94 + 464 x95 + 639 x96 + 431 x97 + 773 x98 + 858 x99
     + 454 x100 <= 25546
Bounds
 0 <= x1 <= 1
 0 <= x2 <= 1
 0 <= x3 <= 1
 0 <= x4 <= 1
 0 <= x5 <= 1
 0 <= x6 <= 1
 0 <= x7 <= 1
 0 <= x8 <= 1
 0 <= x9 <= 1
 0 <= x10 <= 1
 0 <= x11 <= 1
 0 <= x12 <= 1
 0 <= x13 <= 1
 0 <= x14 <= 1
 0 <= x15 <= 1
 0 <= x16 <= 1
 0 <= x17 <= 1
 0 <= x18 <= 1
 0 <= x19 <= 1
 0 <= x20 <= 1
 0 <= x21 <= 1
 0 <= x22 <= 1
 0 <= x23 <= 1
 0 <= x24 <= 1
 0 <= x25 <= 1
 0 <= x26 <= 1
 0 <= x27 <= 1
 0 <= x28 <= 1
 0 <= x29 <= 1
 0 <= x30 <= 1
 0 <= x31 <= 1
 0 <= x32 <= 1
 0 <= x33 <= 1
 0 <= x34 <= 1
 0 <= x35 <= 1
 0 <= x36 <= 1
 0 <= x37 <= 1
 0 <= x38 <= 1
 0 <= x39 <= 1
 0 <= x40 <= 1
 0 <= x41 <= 1
 0 <= x42 <= 1
 0 <= x43 <= 1
 0 <= x44 <= 1
 0 <= x45 <= 1
 0 <= x46 <= 1
 0 <= x47 <= 1
 0 <= x48 <= 1
 0 <= x49 <= 1
 0 <= x50 <= 1
 0 <= x51 <= 1
 0 <= x52 <= 1
 0 <= x53 <= 1
 0 <= x54 <= 1
 0 <= x55 <= 1
 0 <= x56 <= 1
 0 <= x57 <= 1
 0 <= x58 <= 1
 0 <= x59 <= 1
 0 <= x60 <= 1
 0 <= x61 <= 1
 0 <= x62 <= 1
 0 <= x63 <= 1
 0 <= x64 <= 1
 0 <= x65 <= 1
 0 <= x66 <= 1
 0 <= x67 <= 1
 0 <= x68 <= 1
 0 <= x69 <= 1
 0 <= x70 <= 1
 0 <= x71 <= 1
 0 <= x72 <= 1
 0 <= x73 <= 1
 0 <= x74 <= 1
 0 <= x75 <= 1
 0 <= x76 <= 1
 0 <= x77 <= 1
 0 <= x78 <= 1
 0 <= x79 <= 1
 0 <= x80 <= 1
 0 <= x81 <= 1
 0 <= x82 <= 1
 0 <= x83 <= 1
 0 <= x84 <= 1
 0 <= x85 <= 1
 0 <= x86 <= 1
 0 <= x87 <= 1
 0 <= x88 <= 1
 0 <= x89 <= 1
 0 <= x90 <= 1
 0 <= x91 <= 1
 0 <= x92 <= 1
 0 <= x93 <= 1
 0 <= x94 <= 1
 0 <= x95 <= 1
 0 <= x96 <= 1
 0 <= x97 <= 1
 0 <= x98 <= 1
 0 <= x99 <= 1
 0 <= x100 <= 1
Binaries
 x1  x2  x3  x4  x5  x6  x7  x8  x9  x10  x11  x12  x13  x14  x15  x16  x17 
 x18  x19  x20  x21  x22  x23  x24  x25  x26  x27  x28  x29  x30  x31  x32 
 x33  x34  x35  x36  x37  x38  x39  x40  x41  x42  x43  x44  x45  x46  x47 
 x48  x49  x50  x51  x52  x53  x54  x55  x56  x57  x58  x59  x60  x61  x62 
 x63  x64  x65  x66  x67  x68  x69  x70  x71  x72  x73  x74  x75  x76  x77 
 x78  x79  x80  x81  x82  x83  x84  x85  x86  x87  x88  x89  x90  x91  x92 
 x93  x94  x95  x96  x97  x98  x99  x100 
End
